peakDumbCharging = 11100; 
Machine = anon_enum(16); 
machineSpeed = [3700,3700,3700,3700,3700,3700,3700,3700,3700,3700,3700,3700,3700,3700,3700,3700]; 
machineLoad = [3700,3700,3700,3700,3700,3700,3700,3700,3700,3700,3700,3700,3700,3700,3700,3700]; 
Car = anon_enum(17); 
demandCar = [360,31480,4600,19360,4960,2040,24040,1200,10200,9360,1600,3600,6080,10320,2520,3320,7600]; 
arrivalCar = [71,70,61,59,57,56,50,48,47,46,46,44,44,41,41,36,33]; 
departureCar = [72,81,63,65,60,57,58,50,51,50,47,46,47,47,43,39,36]; 
